1769286
62,0,31,55,39,4,5,40,29,24,28,59,22,48,18,53,12,46,19,3,47,1,26,16,8,57,14,7,35,58,15,23,60,11,41,2,20,37,63,66,6,42,45,33,54,25,65,10,64,44,67,34,50,38,61,36,52,49,27,30,21,51,32,56,17,9,13,43